Maximize
F - f1 - f2

Subject to
F - 15.0y220 - 5.0y85 - 20.0y213 - 5.0y167 - 15.0y124 - 20.0y300 - 10.0y109 - 15.0y156 - 15.0y9 - 15.0y270 - 10.0y125 - 10.0y228 - 20.0y183 - 15.0y47 - 15.0y296 = 0
f1 - 0.007351s220 - 0.007351s85 - 0.007351s213 - 0.007351s167 - 0.007351s124 - 0.007351s300 - 0.007351s109 - 0.007351s156 - 0.007351s9 - 0.007351s270 - 0.007351s125 - 0.007351s228 - 0.007351s183 - 0.007351s47 - 0.007351s296  = 0
f2 - 0.58y220 - 0.58y85 - 0.35y213 - 0.02y167 - 0.25y124 - 0.78y300 - 0.39y109 - 0.05y156 - 0.29y9 - 0.36y270 - 0.53y125 - 0.44y228 - 0.15y183 - 0.41y47 - 0.48y296 = 0

x139x124x1 + x139x300x1 + x139x47x1 
<= 2
x53x124x1 
<= 1
x243x220x2 + x243x167x2 + x243x124x2 + x243x300x2 + x243x156x2 + x243x296x2 
<= 1
x285x220x2 + x285x167x2 + x285x124x2 + x285x300x2 + x285x156x2 + x285x296x2 
<= 1
x256x220x2 + x256x167x2 + x256x124x2 + x256x300x2 + x256x156x2 + x256x296x2 
<= 2
x276x220x2 + x276x167x2 + x276x124x2 + x276x300x2 + x276x156x2 + x276x296x2 
<= 2
x126x220x2 + x126x167x2 + x126x124x2 + x126x300x2 + x126x156x2 + x126x296x2 
<= 1
x2x220x2 + x2x167x2 + x2x124x2 + x2x300x2 + x2x156x2 + x2x296x2 
<= 1
x99x167x2 + x99x124x2 + x99x300x2 + x99x296x2 
<= 1
x116x167x3 + x116x109x3 + x116x156x3 + x116x9x3 + x116x270x3 + x116x125x3 + x116x228x3 + x116x183x3 + x116x47x3 
<= 1
x293x167x3 + x293x109x3 + x293x156x3 + x293x9x3 + x293x270x3 + x293x125x3 + x293x228x3 + x293x183x3 + x293x47x3 
<= 2
x162x167x3 + x162x109x3 + x162x156x3 + x162x9x3 + x162x270x3 + x162x125x3 + x162x228x3 + x162x183x3 + x162x47x3 
<= 1
x52x167x3 + x52x109x3 + x52x156x3 + x52x9x3 + x52x270x3 + x52x125x3 + x52x228x3 + x52x183x3 + x52x47x3 
<= 1
x126x167x3 + x126x109x3 + x126x156x3 + x126x9x3 + x126x270x3 + x126x125x3 + x126x228x3 + x126x183x3 + x126x47x3 
<= 1
x2x167x3 + x2x109x3 + x2x156x3 + x2x9x3 + x2x270x3 + x2x125x3 + x2x228x3 + x2x183x3 + x2x47x3 
<= 1
x99x167x3 + x99x270x3 + x99x125x3 + x99x228x3 + x99x183x3 + x99x47x3 
<= 1
x53x167x3 + x53x125x3 
<= 1

x243x220x2 + x285x220x2 + x256x220x2 + x276x220x2 + x126x220x2 + x2x220x2 
- x220x0x2
- x220x300x2 - x220x296x2 
= 0



- x85x300x1 
= 0




- x213x300x1 - x213x47x1 
= 0




x243x167x2 + x285x167x2 + x256x167x2 + x276x167x2 + x126x167x2 + x2x167x2 + x99x167x2 
- x167x0x2
- x167x124x2 
= 0
x116x167x3 + x293x167x3 + x162x167x3 + x52x167x3 + x126x167x3 + x2x167x3 + x99x167x3 + x53x167x3 
- x167x0x3
- x167x125x3 
= 0

x139x124x1 + x53x124x1 
- x124x0x1

= 0
x243x124x2 + x285x124x2 + x256x124x2 + x276x124x2 + x126x124x2 + x2x124x2 + x99x124x2 + x167x124x2 
- x124x0x2

= 0


x139x300x1 + x85x300x1 + x213x300x1 
- x300x0x1

= 0
x243x300x2 + x285x300x2 + x256x300x2 + x276x300x2 + x126x300x2 + x2x300x2 + x99x300x2 + x220x300x2 
- x300x0x2

= 0




x116x109x3 + x293x109x3 + x162x109x3 + x52x109x3 + x126x109x3 + x2x109x3 
- x109x0x3
- x109x9x3 - x109x270x3 - x109x228x3 - x109x183x3 - x109x47x3 
= 0


x243x156x2 + x285x156x2 + x256x156x2 + x276x156x2 + x126x156x2 + x2x156x2 
- x156x0x2
- x156x296x2 
= 0
x116x156x3 + x293x156x3 + x162x156x3 + x52x156x3 + x126x156x3 + x2x156x3 
- x156x0x3
- x156x228x3 - x156x183x3 - x156x47x3 
= 0



x116x9x3 + x293x9x3 + x162x9x3 + x52x9x3 + x126x9x3 + x2x9x3 + x109x9x3 
- x9x0x3
- x9x270x3 - x9x228x3 - x9x183x3 - x9x47x3 
= 0



x116x270x3 + x293x270x3 + x162x270x3 + x52x270x3 + x126x270x3 + x2x270x3 + x99x270x3 + x109x270x3 + x9x270x3 
- x270x0x3
- x270x228x3 - x270x183x3 - x270x47x3 
= 0



x116x125x3 + x293x125x3 + x162x125x3 + x52x125x3 + x126x125x3 + x2x125x3 + x99x125x3 + x53x125x3 + x167x125x3 
- x125x0x3

= 0



x116x228x3 + x293x228x3 + x162x228x3 + x52x228x3 + x126x228x3 + x2x228x3 + x99x228x3 + x109x228x3 + x156x228x3 + x9x228x3 + x270x228x3 
- x228x0x3
- x228x47x3 
= 0



x116x183x3 + x293x183x3 + x162x183x3 + x52x183x3 + x126x183x3 + x2x183x3 + x99x183x3 + x109x183x3 + x156x183x3 + x9x183x3 + x270x183x3 
- x183x0x3

= 0

x139x47x1 + x213x47x1 
- x47x0x1

= 0

x116x47x3 + x293x47x3 + x162x47x3 + x52x47x3 + x126x47x3 + x2x47x3 + x99x47x3 + x109x47x3 + x156x47x3 + x9x47x3 + x270x47x3 + x228x47x3 
- x47x0x3

= 0


x243x296x2 + x285x296x2 + x256x296x2 + x276x296x2 + x126x296x2 + x2x296x2 + x99x296x2 + x220x296x2 + x156x296x2 
- x296x0x2

= 0


2y220 - x243x220x2 - x285x220x2 - x256x220x2 - x276x220x2 - x126x220x2 - x2x220x2 = 0
2y85 = 0
2y213 = 0
1y167 - x243x167x2 - x285x167x2 - x256x167x2 - x276x167x2 - x126x167x2 - x2x167x2 - x99x167x2 = 0
1y167 - x116x167x3 - x293x167x3 - x162x167x3 - x52x167x3 - x126x167x3 - x2x167x3 - x99x167x3 - x53x167x3 = 0
1y124 - x139x124x1 - x53x124x1 = 0
1y124 - x243x124x2 - x285x124x2 - x256x124x2 - x276x124x2 - x126x124x2 - x2x124x2 - x99x124x2 - x167x124x2 = 0
1y300 - x139x300x1 - x85x300x1 - x213x300x1 = 0
1y300 - x243x300x2 - x285x300x2 - x256x300x2 - x276x300x2 - x126x300x2 - x2x300x2 - x99x300x2 - x220x300x2 = 0
2y109 - x116x109x3 - x293x109x3 - x162x109x3 - x52x109x3 - x126x109x3 - x2x109x3 = 0
1y156 - x243x156x2 - x285x156x2 - x256x156x2 - x276x156x2 - x126x156x2 - x2x156x2 = 0
1y156 - x116x156x3 - x293x156x3 - x162x156x3 - x52x156x3 - x126x156x3 - x2x156x3 = 0
2y9 - x116x9x3 - x293x9x3 - x162x9x3 - x52x9x3 - x126x9x3 - x2x9x3 - x109x9x3 = 0
2y270 - x116x270x3 - x293x270x3 - x162x270x3 - x52x270x3 - x126x270x3 - x2x270x3 - x99x270x3 - x109x270x3 - x9x270x3 = 0
2y125 - x116x125x3 - x293x125x3 - x162x125x3 - x52x125x3 - x126x125x3 - x2x125x3 - x99x125x3 - x53x125x3 - x167x125x3 = 0
2y228 - x116x228x3 - x293x228x3 - x162x228x3 - x52x228x3 - x126x228x3 - x2x228x3 - x99x228x3 - x109x228x3 - x156x228x3 - x9x228x3 - x270x228x3 = 0
2y183 - x116x183x3 - x293x183x3 - x162x183x3 - x52x183x3 - x126x183x3 - x2x183x3 - x99x183x3 - x109x183x3 - x156x183x3 - x9x183x3 - x270x183x3 = 0
1y47 - x139x47x1 - x213x47x1 = 0
1y47 - x116x47x3 - x293x47x3 - x162x47x3 - x52x47x3 - x126x47x3 - x2x47x3 - x99x47x3 - x109x47x3 - x156x47x3 - x9x47x3 - x270x47x3 - x228x47x3 = 0
2y296 - x243x296x2 - x285x296x2 - x256x296x2 - x276x296x2 - x126x296x2 - x2x296x2 - x99x296x2 - x220x296x2 - x156x296x2 = 0

s243 - s220 + 8.074430z243z220z2 <= 6.37
s243 - s167 + 7.812209z243z167z2 <= 6.37
s243 - s124 + 7.865331z243z124z2 <= 6.37
s243 - s300 + 8.115893z243z300z2 <= 6.37
s243 - s156 + 8.173870z243z156z2 <= 6.37
s243 - s296 + 8.136742z243z296z2 <= 6.37
s116 - s167 + 7.654495z116z167z3 <= 6.41
s116 - s109 + 7.890092z116z109z3 <= 6.41
s116 - s156 + 7.924415z116z156z3 <= 6.41
s116 - s9 + 7.905491z116z9z3 <= 6.41
s116 - s270 + 7.904997z116z270z3 <= 6.41
s116 - s125 + 7.702878z116z125z3 <= 6.41
s116 - s228 + 7.904952z116z228z3 <= 6.41
s116 - s183 + 7.933662z116z183z3 <= 6.41
s116 - s47 + 7.910888z116z47z3 <= 6.41
s285 - s220 + 8.660336z285z220z2 <= 7.31
s285 - s167 + 8.564472z285z167z2 <= 7.31
s285 - s124 + 8.560138z285z124z2 <= 7.31
s285 - s300 + 8.702345z285z300z2 <= 7.31
s285 - s156 + 8.770713z285z156z2 <= 7.31
s285 - s296 + 8.750141z285z296z2 <= 7.31
s293 - s167 + 8.462479z293z167z3 <= 7.10
s293 - s109 + 8.490667z293z109z3 <= 7.10
s293 - s156 + 8.537626z293z156z3 <= 7.10
s293 - s9 + 8.509038z293z9z3 <= 7.10
s293 - s270 + 8.505093z293z270z3 <= 7.10
s293 - s125 + 8.472228z293z125z3 <= 7.10
s293 - s228 + 8.501657z293z228z3 <= 7.10
s293 - s183 + 8.540833z293z183z3 <= 7.10
s293 - s47 + 8.508122z293z47z3 <= 7.10
s256 - s220 + 8.785735z256z220z2 <= 7.34
s256 - s167 + 8.767200z256z167z2 <= 7.34
s256 - s124 + 8.763805z256z124z2 <= 7.34
s256 - s300 + 8.826366z256z300z2 <= 7.34
s256 - s156 + 8.800500z256z156z2 <= 7.34
s256 - s296 + 8.749400z256z296z2 <= 7.34
s162 - s167 + 8.482710z162z167z3 <= 7.32
s162 - s109 + 8.798725z162z109z3 <= 7.32
s162 - s156 + 8.822971z162z156z3 <= 7.32
s162 - s9 + 8.811445z162z9z3 <= 7.32
s162 - s270 + 8.813459z162z270z3 <= 7.32
s162 - s125 + 8.528094z162z125z3 <= 7.32
s162 - s228 + 8.815910z162z228z3 <= 7.32
s162 - s183 + 8.836123z162z183z3 <= 7.32
s162 - s47 + 8.821259z162z47z3 <= 7.32
s276 - s220 + 8.579327z276z220z2 <= 7.31
s276 - s167 + 8.681524z276z167z2 <= 7.31
s276 - s124 + 8.647229z276z124z2 <= 7.31
s276 - s300 + 8.619188z276z300z2 <= 7.31
s276 - s156 + 8.621147z276z156z2 <= 7.31
s276 - s296 + 8.594226z276z296z2 <= 7.31
s52 - s167 + 8.806973z52z167z3 <= 7.47
s52 - s109 + 8.738644z52z109z3 <= 7.47
s52 - s156 + 8.764400z52z156z3 <= 7.47
s52 - s9 + 8.751183z52z9z3 <= 7.47
s52 - s270 + 8.753324z52z270z3 <= 7.47
s52 - s125 + 8.739974z52z125z3 <= 7.47
s52 - s228 + 8.756230z52z228z3 <= 7.47
s52 - s183 + 8.776316z52z183z3 <= 7.47
s52 - s47 + 8.761421z52z47z3 <= 7.47
s139 - s124 + 8.913912z139z124z1 <= 7.36
s139 - s300 + 8.980053z139z300z1 <= 7.36
s139 - s47 + 8.869282z139z47z1 <= 7.36
s126 - s220 + 8.803347z126z220z2 <= 7.33
s126 - s167 + 8.833915z126z167z2 <= 7.33
s126 - s167 + 8.833915z126z167z3 <= 7.33
s126 - s124 + 8.825022z126z124z2 <= 7.33
s126 - s300 + 8.841576z126z300z2 <= 7.33
s126 - s109 + 8.711912z126z109z3 <= 7.33
s126 - s156 + 8.771927z126z156z2 <= 7.33
s126 - s156 + 8.771927z126z156z3 <= 7.33
s126 - s9 + 8.732721z126z9z3 <= 7.33
s126 - s270 + 8.724137z126z270z3 <= 7.33
s126 - s125 + 8.833608z126z125z3 <= 7.33
s126 - s228 + 8.715935z126z228z3 <= 7.33
s126 - s183 + 8.766699z126z183z3 <= 7.33
s126 - s47 + 8.722567z126z47z3 <= 7.33
s126 - s296 + 8.708664z126z296z2 <= 7.33
s2 - s220 + 8.539165z2z220z2 <= 7.39
s2 - s167 + 8.696090z2z167z2 <= 7.39
s2 - s167 + 8.696090z2z167z3 <= 7.39
s2 - s124 + 8.640924z2z124z2 <= 7.39
s2 - s300 + 8.581300z2z300z2 <= 7.39
s2 - s109 + 8.673604z2z109z3 <= 7.39
s2 - s156 + 8.684045z2z156z2 <= 7.39
s2 - s156 + 8.684045z2z156z3 <= 7.39
s2 - s9 + 8.681774z2z9z3 <= 7.39
s2 - s270 + 8.687269z2z270z3 <= 7.39
s2 - s125 + 8.604551z2z125z3 <= 7.39
s2 - s228 + 8.693398z2z228z3 <= 7.39
s2 - s183 + 8.701049z2z183z3 <= 7.39
s2 - s47 + 8.697536z2z47z3 <= 7.39
s2 - s296 + 8.694711z2z296z2 <= 7.39
s99 - s167 + 8.578032z99z167z2 <= 7.50
s99 - s167 + 8.578032z99z167z3 <= 7.50
s99 - s124 + 8.647271z99z124z2 <= 7.50
s99 - s300 + 8.978934z99z300z2 <= 7.50
s99 - s270 + 9.137251z99z270z3 <= 7.50
s99 - s125 + 8.720101z99z125z3 <= 7.50
s99 - s228 + 9.141388z99z228z3 <= 7.50
s99 - s183 + 9.154896z99z183z3 <= 7.50
s99 - s47 + 9.146255z99z47z3 <= 7.50
s99 - s296 + 9.141179z99z296z2 <= 7.50
s53 - s167 + 8.689409z53z167z3 <= 7.62
s53 - s124 + 8.757749z53z124z1 <= 7.62
s53 - s125 + 8.830524z53z125z3 <= 7.62
s220 - s300 + 9.912164z220z300z2 <= 8.87
s220 - s296 + 10.172655z220z296z2 <= 8.87
s85 - s300 + 9.962462z85z300z1 <= 8.88
s213 - s300 + 10.029204z213z300z1 <= 8.89
s213 - s47 + 10.065372z213z47z1 <= 8.89
s167 - s124 + 10.014535z167z124z2 <= 8.94
s167 - s125 + 10.088024z167z125z3 <= 8.94
s109 - s9 + 10.091082z109z9z3 <= 9.07
s109 - s270 + 10.084907z109z270z3 <= 9.07
s109 - s228 + 10.091082z109z228z3 <= 9.07
s109 - s183 + 10.124974z109z183z3 <= 9.07
s109 - s47 + 10.094037z109z47z3 <= 9.07
s156 - s228 + 10.176012z156z228z3 <= 9.10
s156 - s183 + 10.126667z156z183z3 <= 9.10
s156 - s47 + 10.172112z156z47z3 <= 9.10
s156 - s296 + 10.185375z156z296z2 <= 9.10
s9 - s270 + 10.124907z9z270z3 <= 9.11
s9 - s228 + 10.139814z9z228z3 <= 9.11
s9 - s183 + 10.143993z9z183z3 <= 9.11
s9 - s47 + 10.137487z9z47z3 <= 9.11
s270 - s228 + 10.154907z270z228z3 <= 9.14
s270 - s183 + 10.184722z270z183z3 <= 9.14
s270 - s47 + 10.153334z270z47z3 <= 9.14
s228 - s47 + 10.186666z228z47z3 <= 9.18

x243x220x2 - 2z243z220z2 <= 0
x243x167x2 - 1z243z167z2 <= 0
x243x124x2 - 1z243z124z2 <= 0
x243x300x2 - 1z243z300z2 <= 0
x243x156x2 - 1z243z156z2 <= 0
x243x296x2 - 2z243z296z2 <= 0
x116x167x3 - 1z116z167z3 <= 0
x116x109x3 - 2z116z109z3 <= 0
x116x156x3 - 1z116z156z3 <= 0
x116x9x3 - 2z116z9z3 <= 0
x116x270x3 - 2z116z270z3 <= 0
x116x125x3 - 2z116z125z3 <= 0
x116x228x3 - 2z116z228z3 <= 0
x116x183x3 - 2z116z183z3 <= 0
x116x47x3 - 1z116z47z3 <= 0
x285x220x2 - 2z285z220z2 <= 0
x285x167x2 - 1z285z167z2 <= 0
x285x124x2 - 1z285z124z2 <= 0
x285x300x2 - 1z285z300z2 <= 0
x285x156x2 - 1z285z156z2 <= 0
x285x296x2 - 2z285z296z2 <= 0
x293x167x3 - 1z293z167z3 <= 0
x293x109x3 - 2z293z109z3 <= 0
x293x156x3 - 1z293z156z3 <= 0
x293x9x3 - 2z293z9z3 <= 0
x293x270x3 - 2z293z270z3 <= 0
x293x125x3 - 2z293z125z3 <= 0
x293x228x3 - 2z293z228z3 <= 0
x293x183x3 - 2z293z183z3 <= 0
x293x47x3 - 1z293z47z3 <= 0
x256x220x2 - 2z256z220z2 <= 0
x256x167x2 - 1z256z167z2 <= 0
x256x124x2 - 1z256z124z2 <= 0
x256x300x2 - 1z256z300z2 <= 0
x256x156x2 - 1z256z156z2 <= 0
x256x296x2 - 2z256z296z2 <= 0
x162x167x3 - 1z162z167z3 <= 0
x162x109x3 - 2z162z109z3 <= 0
x162x156x3 - 1z162z156z3 <= 0
x162x9x3 - 2z162z9z3 <= 0
x162x270x3 - 2z162z270z3 <= 0
x162x125x3 - 2z162z125z3 <= 0
x162x228x3 - 2z162z228z3 <= 0
x162x183x3 - 2z162z183z3 <= 0
x162x47x3 - 1z162z47z3 <= 0
x276x220x2 - 2z276z220z2 <= 0
x276x167x2 - 1z276z167z2 <= 0
x276x124x2 - 1z276z124z2 <= 0
x276x300x2 - 1z276z300z2 <= 0
x276x156x2 - 1z276z156z2 <= 0
x276x296x2 - 2z276z296z2 <= 0
x52x167x3 - 1z52z167z3 <= 0
x52x109x3 - 2z52z109z3 <= 0
x52x156x3 - 1z52z156z3 <= 0
x52x9x3 - 2z52z9z3 <= 0
x52x270x3 - 2z52z270z3 <= 0
x52x125x3 - 2z52z125z3 <= 0
x52x228x3 - 2z52z228z3 <= 0
x52x183x3 - 2z52z183z3 <= 0
x52x47x3 - 1z52z47z3 <= 0
x139x124x1 - 1z139z124z1 <= 0
x139x300x1 - 1z139z300z1 <= 0
x139x47x1 - 1z139z47z1 <= 0
x126x220x2 - 2z126z220z2 <= 0
x126x167x2 - 1z126z167z2 <= 0
x126x167x3 - 1z126z167z3 <= 0
x126x124x2 - 1z126z124z2 <= 0
x126x300x2 - 1z126z300z2 <= 0
x126x109x3 - 2z126z109z3 <= 0
x126x156x2 - 1z126z156z2 <= 0
x126x156x3 - 1z126z156z3 <= 0
x126x9x3 - 2z126z9z3 <= 0
x126x270x3 - 2z126z270z3 <= 0
x126x125x3 - 2z126z125z3 <= 0
x126x228x3 - 2z126z228z3 <= 0
x126x183x3 - 2z126z183z3 <= 0
x126x47x3 - 1z126z47z3 <= 0
x126x296x2 - 2z126z296z2 <= 0
x2x220x2 - 2z2z220z2 <= 0
x2x167x2 - 1z2z167z2 <= 0
x2x167x3 - 1z2z167z3 <= 0
x2x124x2 - 1z2z124z2 <= 0
x2x300x2 - 1z2z300z2 <= 0
x2x109x3 - 2z2z109z3 <= 0
x2x156x2 - 1z2z156z2 <= 0
x2x156x3 - 1z2z156z3 <= 0
x2x9x3 - 2z2z9z3 <= 0
x2x270x3 - 2z2z270z3 <= 0
x2x125x3 - 2z2z125z3 <= 0
x2x228x3 - 2z2z228z3 <= 0
x2x183x3 - 2z2z183z3 <= 0
x2x47x3 - 1z2z47z3 <= 0
x2x296x2 - 2z2z296z2 <= 0
x99x167x2 - 1z99z167z2 <= 0
x99x167x3 - 1z99z167z3 <= 0
x99x124x2 - 1z99z124z2 <= 0
x99x300x2 - 1z99z300z2 <= 0
x99x270x3 - 2z99z270z3 <= 0
x99x125x3 - 2z99z125z3 <= 0
x99x228x3 - 2z99z228z3 <= 0
x99x183x3 - 2z99z183z3 <= 0
x99x47x3 - 1z99z47z3 <= 0
x99x296x2 - 2z99z296z2 <= 0
x53x167x3 - 1z53z167z3 <= 0
x53x124x1 - 1z53z124z1 <= 0
x53x125x3 - 2z53z125z3 <= 0
x220x300x2 - 1z220z300z2 <= 0
x220x296x2 - 2z220z296z2 <= 0
x220x0x2 <= 2
x85x300x1 - 1z85z300z1 <= 0
x85x0x1 <= 2
x213x300x1 - 1z213z300z1 <= 0
x213x47x1 - 1z213z47z1 <= 0
x213x0x1 <= 2
x167x124x2 - 1z167z124z2 <= 0
x167x125x3 - 2z167z125z3 <= 0
x167x0x2 <= 1
x167x0x3 <= 1
x124x0x1 <= 1
x124x0x2 <= 1
x300x0x1 <= 1
x300x0x2 <= 1
x109x9x3 - 2z109z9z3 <= 0
x109x270x3 - 2z109z270z3 <= 0
x109x228x3 - 2z109z228z3 <= 0
x109x183x3 - 2z109z183z3 <= 0
x109x47x3 - 1z109z47z3 <= 0
x109x0x3 <= 2
x156x228x3 - 2z156z228z3 <= 0
x156x183x3 - 2z156z183z3 <= 0
x156x47x3 - 1z156z47z3 <= 0
x156x296x2 - 2z156z296z2 <= 0
x156x0x2 <= 1
x156x0x3 <= 1
x9x270x3 - 2z9z270z3 <= 0
x9x228x3 - 2z9z228z3 <= 0
x9x183x3 - 2z9z183z3 <= 0
x9x47x3 - 1z9z47z3 <= 0
x9x0x3 <= 2
x270x228x3 - 2z270z228z3 <= 0
x270x183x3 - 2z270z183z3 <= 0
x270x47x3 - 1z270z47z3 <= 0
x270x0x3 <= 2
x125x0x3 <= 2
x228x47x3 - 1z228z47z3 <= 0
x228x0x3 <= 2
x183x0x3 <= 2
x47x0x1 <= 1
x47x0x3 <= 1
x296x0x2 <= 2

s220 - 6.00z243z220z2 >= 0
s220 - 6.00z285z220z2 >= 0
s220 - 6.00z256z220z2 >= 0
s220 - 6.00z276z220z2 >= 0
s220 - 6.00z126z220z2 >= 0
s220 - 6.00z2z220z2 >= 0
s167 - 6.00z243z167z2 >= 0
s167 - 6.00z116z167z3 >= 0
s167 - 6.00z285z167z2 >= 0
s167 - 6.00z293z167z3 >= 0
s167 - 6.00z256z167z2 >= 0
s167 - 6.00z162z167z3 >= 0
s167 - 6.00z276z167z2 >= 0
s167 - 6.00z52z167z3 >= 0
s167 - 6.00z126z167z2 >= 0
s167 - 6.00z126z167z3 >= 0
s167 - 6.00z2z167z2 >= 0
s167 - 6.00z2z167z3 >= 0
s167 - 6.00z99z167z2 >= 0
s167 - 6.00z99z167z3 >= 0
s167 - 6.00z53z167z3 >= 0
s124 - 6.00z243z124z2 >= 0
s124 - 6.00z285z124z2 >= 0
s124 - 6.00z256z124z2 >= 0
s124 - 6.00z276z124z2 >= 0
s124 - 6.00z139z124z1 >= 0
s124 - 6.00z126z124z2 >= 0
s124 - 6.00z2z124z2 >= 0
s124 - 6.00z99z124z2 >= 0
s124 - 6.00z53z124z1 >= 0
s124 - 6.00z167z124z2 >= 0
s300 - 6.00z243z300z2 >= 0
s300 - 6.00z285z300z2 >= 0
s300 - 6.00z256z300z2 >= 0
s300 - 6.00z276z300z2 >= 0
s300 - 6.00z139z300z1 >= 0
s300 - 6.00z126z300z2 >= 0
s300 - 6.00z2z300z2 >= 0
s300 - 6.00z99z300z2 >= 0
s300 - 6.00z220z300z2 >= 0
s300 - 6.00z85z300z1 >= 0
s300 - 6.00z213z300z1 >= 0
s109 - 6.00z116z109z3 >= 0
s109 - 6.00z293z109z3 >= 0
s109 - 6.00z162z109z3 >= 0
s109 - 6.00z52z109z3 >= 0
s109 - 6.00z126z109z3 >= 0
s109 - 6.00z2z109z3 >= 0
s156 - 6.00z243z156z2 >= 0
s156 - 6.00z116z156z3 >= 0
s156 - 6.00z285z156z2 >= 0
s156 - 6.00z293z156z3 >= 0
s156 - 6.00z256z156z2 >= 0
s156 - 6.00z162z156z3 >= 0
s156 - 6.00z276z156z2 >= 0
s156 - 6.00z52z156z3 >= 0
s156 - 6.00z126z156z2 >= 0
s156 - 6.00z126z156z3 >= 0
s156 - 6.00z2z156z2 >= 0
s156 - 6.00z2z156z3 >= 0
s9 - 6.00z116z9z3 >= 0
s9 - 6.00z293z9z3 >= 0
s9 - 6.00z162z9z3 >= 0
s9 - 6.00z52z9z3 >= 0
s9 - 6.00z126z9z3 >= 0
s9 - 6.00z2z9z3 >= 0
s9 - 6.00z109z9z3 >= 0
s270 - 6.00z116z270z3 >= 0
s270 - 6.00z293z270z3 >= 0
s270 - 6.00z162z270z3 >= 0
s270 - 6.00z52z270z3 >= 0
s270 - 6.00z126z270z3 >= 0
s270 - 6.00z2z270z3 >= 0
s270 - 6.00z99z270z3 >= 0
s270 - 6.00z109z270z3 >= 0
s270 - 6.00z9z270z3 >= 0
s125 - 6.00z116z125z3 >= 0
s125 - 6.00z293z125z3 >= 0
s125 - 6.00z162z125z3 >= 0
s125 - 6.00z52z125z3 >= 0
s125 - 6.00z126z125z3 >= 0
s125 - 6.00z2z125z3 >= 0
s125 - 6.00z99z125z3 >= 0
s125 - 6.00z53z125z3 >= 0
s125 - 6.00z167z125z3 >= 0
s228 - 6.00z116z228z3 >= 0
s228 - 6.00z293z228z3 >= 0
s228 - 6.00z162z228z3 >= 0
s228 - 6.00z52z228z3 >= 0
s228 - 6.00z126z228z3 >= 0
s228 - 6.00z2z228z3 >= 0
s228 - 6.00z99z228z3 >= 0
s228 - 6.00z109z228z3 >= 0
s228 - 6.00z156z228z3 >= 0
s228 - 6.00z9z228z3 >= 0
s228 - 6.00z270z228z3 >= 0
s183 - 6.00z116z183z3 >= 0
s183 - 6.00z293z183z3 >= 0
s183 - 6.00z162z183z3 >= 0
s183 - 6.00z52z183z3 >= 0
s183 - 6.00z126z183z3 >= 0
s183 - 6.00z2z183z3 >= 0
s183 - 6.00z99z183z3 >= 0
s183 - 6.00z109z183z3 >= 0
s183 - 6.00z156z183z3 >= 0
s183 - 6.00z9z183z3 >= 0
s183 - 6.00z270z183z3 >= 0
s47 - 6.00z116z47z3 >= 0
s47 - 6.00z293z47z3 >= 0
s47 - 6.00z162z47z3 >= 0
s47 - 6.00z52z47z3 >= 0
s47 - 6.00z139z47z1 >= 0
s47 - 6.00z126z47z3 >= 0
s47 - 6.00z2z47z3 >= 0
s47 - 6.00z99z47z3 >= 0
s47 - 6.00z213z47z1 >= 0
s47 - 6.00z109z47z3 >= 0
s47 - 6.00z156z47z3 >= 0
s47 - 6.00z9z47z3 >= 0
s47 - 6.00z270z47z3 >= 0
s47 - 6.00z228z47z3 >= 0
s296 - 6.00z243z296z2 >= 0
s296 - 6.00z285z296z2 >= 0
s296 - 6.00z256z296z2 >= 0
s296 - 6.00z276z296z2 >= 0
s296 - 6.00z126z296z2 >= 0
s296 - 6.00z2z296z2 >= 0
s296 - 6.00z99z296z2 >= 0
s296 - 6.00z220z296z2 >= 0
s296 - 6.00z156z296z2 >= 0

Bounds
s243 = 6.374843
s116 = 6.410000
s285 = 7.311051
s293 = 7.095812
s256 = 7.340065
s162 = 7.315910
s276 = 7.313829
s52 = 7.471977
s139 = 7.357335
s126 = 7.327204
s2 = 7.389351
s99 = 7.500000
s194 = 8.457174
s53 = 7.623750
s187 = 8.476096
s96 = 8.672037
7.870000 <= s220 <= 8.870000
7.880000 <= s85 <= 8.880000
7.890000 <= s213 <= 8.890000
7.940000 <= s167 <= 8.940000
8.030000 <= s124 <= 9.030000
8.050000 <= s300 <= 9.050000
8.070000 <= s109 <= 9.070000
8.100000 <= s156 <= 9.100000
8.110000 <= s9 <= 9.110000
8.140000 <= s270 <= 9.140000
8.180000 <= s125 <= 9.180000
8.180000 <= s228 <= 9.180000
8.190000 <= s183 <= 9.190000
8.200000 <= s47 <= 9.200000
8.200000 <= s296 <= 9.200000

General
x243x220x2 x243x167x2 x243x124x2 x243x300x2 x243x156x2 x243x296x2 
x116x167x3 x116x109x3 x116x156x3 x116x9x3 x116x270x3 x116x125x3 x116x228x3 x116x183x3 x116x47x3 
x285x220x2 x285x167x2 x285x124x2 x285x300x2 x285x156x2 x285x296x2 
x293x167x3 x293x109x3 x293x156x3 x293x9x3 x293x270x3 x293x125x3 x293x228x3 x293x183x3 x293x47x3 
x256x220x2 x256x167x2 x256x124x2 x256x300x2 x256x156x2 x256x296x2 
x162x167x3 x162x109x3 x162x156x3 x162x9x3 x162x270x3 x162x125x3 x162x228x3 x162x183x3 x162x47x3 
x276x220x2 x276x167x2 x276x124x2 x276x300x2 x276x156x2 x276x296x2 
x52x167x3 x52x109x3 x52x156x3 x52x9x3 x52x270x3 x52x125x3 x52x228x3 x52x183x3 x52x47x3 
x139x124x1 x139x300x1 x139x47x1 
x126x220x2 x126x167x2 x126x167x3 x126x124x2 x126x300x2 x126x109x3 x126x156x2 x126x156x3 x126x9x3 x126x270x3 x126x125x3 x126x228x3 x126x183x3 x126x47x3 x126x296x2 
x2x220x2 x2x167x2 x2x167x3 x2x124x2 x2x300x2 x2x109x3 x2x156x2 x2x156x3 x2x9x3 x2x270x3 x2x125x3 x2x228x3 x2x183x3 x2x47x3 x2x296x2 
x99x167x2 x99x167x3 x99x124x2 x99x300x2 x99x270x3 x99x125x3 x99x228x3 x99x183x3 x99x47x3 x99x296x2 

x53x167x3 x53x124x1 x53x125x3 


x220x300x2 x220x296x2 x220x0x2 
x85x300x1 x85x0x1 
x213x300x1 x213x47x1 x213x0x1 
x167x124x2 x167x125x3 x167x0x2 x167x0x3 
x124x0x1 x124x0x2 
x300x0x1 x300x0x2 
x109x9x3 x109x270x3 x109x228x3 x109x183x3 x109x47x3 x109x0x3 
x156x228x3 x156x183x3 x156x47x3 x156x296x2 x156x0x2 x156x0x3 
x9x270x3 x9x228x3 x9x183x3 x9x47x3 x9x0x3 
x270x228x3 x270x183x3 x270x47x3 x270x0x3 
x125x0x3 
x228x47x3 x228x0x3 
x183x0x3 
x47x0x1 x47x0x3 
x296x0x2 

Binaries
y220 y85 y213 y167 y124 y300 y109 y156 y9 y270 y125 y228 y183 y47 y296 
z243z220z2 z243z167z2 z243z124z2 z243z300z2 z243z156z2 z243z296z2 
z116z167z3 z116z109z3 z116z156z3 z116z9z3 z116z270z3 z116z125z3 z116z228z3 z116z183z3 z116z47z3 
z285z220z2 z285z167z2 z285z124z2 z285z300z2 z285z156z2 z285z296z2 
z293z167z3 z293z109z3 z293z156z3 z293z9z3 z293z270z3 z293z125z3 z293z228z3 z293z183z3 z293z47z3 
z256z220z2 z256z167z2 z256z124z2 z256z300z2 z256z156z2 z256z296z2 
z162z167z3 z162z109z3 z162z156z3 z162z9z3 z162z270z3 z162z125z3 z162z228z3 z162z183z3 z162z47z3 
z276z220z2 z276z167z2 z276z124z2 z276z300z2 z276z156z2 z276z296z2 
z52z167z3 z52z109z3 z52z156z3 z52z9z3 z52z270z3 z52z125z3 z52z228z3 z52z183z3 z52z47z3 
z139z124z1 z139z300z1 z139z47z1 
z126z220z2 z126z167z2 z126z167z3 z126z124z2 z126z300z2 z126z109z3 z126z156z2 z126z156z3 z126z9z3 z126z270z3 z126z125z3 z126z228z3 z126z183z3 z126z47z3 z126z296z2 
z2z220z2 z2z167z2 z2z167z3 z2z124z2 z2z300z2 z2z109z3 z2z156z2 z2z156z3 z2z9z3 z2z270z3 z2z125z3 z2z228z3 z2z183z3 z2z47z3 z2z296z2 
z99z167z2 z99z167z3 z99z124z2 z99z300z2 z99z270z3 z99z125z3 z99z228z3 z99z183z3 z99z47z3 z99z296z2 

z53z167z3 z53z124z1 z53z125z3 


z220z300z2 z220z296z2 
z85z300z1 
z213z300z1 z213z47z1 
z167z124z2 z167z125z3 


z109z9z3 z109z270z3 z109z228z3 z109z183z3 z109z47z3 
z156z228z3 z156z183z3 z156z47z3 z156z296z2 
z9z270z3 z9z228z3 z9z183z3 z9z47z3 
z270z228z3 z270z183z3 z270z47z3 

z228z47z3 




End